tsp_instances/TSP20/instance10.tsp
NODE_COORD_SECTION
0 57 169
1 76 152
2 161 63
3 114 179
4 130 139
5 86 68
6 137 5
7 73 101
8 81 98
9 180 68
10 76 64
11 83 106
12 199 66
13 178 130
14 85 156
15 75 36
16 148 37
17 172 192
18 44 103
19 41 92
