tsp_instances/TSP20/instance10.opt.tour
TOUR_SECTION
1
2
15
4
5
18
14
13
10
3
17
7
16
11
6
9
12
8
20
19
-1